c turning on binary mode checking
c parsing input formula with 202048 variables and 780980 clauses
c finished parsing, read 2291892 bytes from proof file
c detected empty clause; start verification via backward checking
c 4123 of 780980 clauses in core                            
c 1463 of 87193 lemmas in core using 57226 resolution steps
c 0 RAT lemmas in core; 253 redundant literals in core lemmas
s VERIFIED
c verification time: 0.919 seconds
